
Gurobi 7.0.1 (win64) logging started 04/04/17 15:29:00

Changed value of parameter LogFile to outputlogs\log_LPIP_prov_code_7_1491334140.log
   Prev: gurobi.log  Default: 
Optimize a model with 2212 rows, 103490 columns and 207414 nonzeros
Variable types: 0 continuous, 103490 integer (103490 binary)
Coefficient statistics:
  Matrix range     [1e+00, 7e+02]
  Objective range  [5e+01, 1e+07]
  Bounds range     [1e+00, 1e+00]
  RHS range        [1e+00, 1e+01]
Presolve removed 271 rows and 0 columns
Presolve time: 0.18s
Presolved: 1941 rows, 103490 columns, 207143 nonzeros
Variable types: 0 continuous, 103490 integer (103490 binary)

Root simplex log...

Iteration    Objective       Primal Inf.    Dual Inf.      Time
       0    0.0000000e+00   1.342000e+03   0.000000e+00     31s
    1372    1.0547575e+07   0.000000e+00   0.000000e+00     31s

Root relaxation: objective 1.054758e+07, 1372 iterations, 0.04 seconds

    Nodes    |    Current Node    |     Objective Bounds      |     Work
 Expl Unexpl |  Obj  Depth IntInf | Incumbent    BestBd   Gap | It/Node Time

     0     0 1.0548e+07    0    9          - 1.0548e+07      -     -   31s
     0     0 1.0548e+07    0    9          - 1.0548e+07      -     -   43s
     0     0 1.0712e+07    0   46          - 1.0712e+07      -     -   43s
     0     0 1.0712e+07    0   46          - 1.0712e+07      -     -   50s
     0     0 1.0714e+07    0   18          - 1.0714e+07      -     -   50s
     0     0 1.0714e+07    0   18          - 1.0714e+07      -     -   56s
     0     0 1.0760e+07    0   28          - 1.0760e+07      -     -   56s
     0     0 1.0762e+07    0  104          - 1.0762e+07      -     -   57s
     0     0 1.0762e+07    0  104          - 1.0762e+07      -     -   63s
     0     0 1.0762e+07    0   16          - 1.0762e+07      -     -   63s
     0     0 1.0762e+07    0   20          - 1.0762e+07      -     -   63s
H    0     0                    1.076399e+07 1.0762e+07  0.02%     -   68s
     0     0 1.0762e+07    0   14 1.0764e+07 1.0762e+07  0.02%     -   68s
     0     0 1.0762e+07    0   20 1.0764e+07 1.0762e+07  0.02%     -   69s
     0     0 1.0762e+07    0    5 1.0764e+07 1.0762e+07  0.02%     -   69s
     0     0 1.0762e+07    0    3 1.0764e+07 1.0762e+07  0.02%     -   69s
     0     0 1.0762e+07    0   12 1.0764e+07 1.0762e+07  0.02%     -   69s
     0     0 1.0762e+07    0    9 1.0764e+07 1.0762e+07  0.02%     -   69s
H    0     0                    1.076232e+07 1.0762e+07  0.00%     -   90s

Cutting planes:
  Cover: 1
  MIR: 5
  StrongCG: 1
  Lazy constraints: 35

Explored 0 nodes (3356 simplex iterations) in 90.09 seconds
Thread count was 4 (of 4 available processors)

Solution count 2: 1.07623e+07 1.0764e+07 
Pool objective bound 1.07621e+07

Optimal solution found (tolerance 1.00e-04)
Best objective 1.076232074108e+07, best bound 1.076205685442e+07, gap 0.0025%
